c --- [ banner ] -------------------------------------------------------------
c 
c CaDiCaL Radically Simplified CDCL SAT Solver
c Copyright (c) 2016-2021 A. Biere, M. Fleury, N. Froleyks
c 
c Version 1.5.2 9c38a080b32c28d805e8e6ca21849856b0cda605
c g++ (Ubuntu 7.5.0-3ubuntu1~18.04) 7.5.0 -Wall -Wextra -O3 -DNDEBUG
c Wed Feb 16 23:15:36 EST 2022 Linux fac-vanhoeve01 5.4.0-99-generic x86_64
c 
c --- [ parsing input ] ------------------------------------------------------
c 
c reading DIMACS file from '<stdin>' (use '-h' for a list of common options)
c found 'p cnf 2692 7976' header
c parsed 7976 clauses in 0.00 seconds process time
c disconnecting from '<stdin>'
c after reading 106558 bytes 0.1 MB
c 
c --- [ options ] ------------------------------------------------------------
c 
c all options are set to their default value
c 
c --- [ solving ] ------------------------------------------------------------
c 
c time measured in process time since initialization
c 
c  seconds  reductions  redundant irredundant
c         MB    restarts       trail    variables
c          level   conflicts       glue      remaining
c 
c *  0.00  5  0 0   0    0    0  0% 0 7974 2618 97%
c {  0.01  5  0 0   0    0    0  0% 0 7974 2618 97%
c -  0.02  5 74 1  23  300  288 74% 7 7902 2618 97%
c -  0.07  5 42 2 127  903  766 83% 8 7902 2618 97%
c }  0.07  5 40 2 127 1002  857 81% 8 7902 2618 97%
c [  0.07  5  0 2 127 1002  857  0% 0 7902 2618 97%
c O  0.07  5 15 2 127 1003  858 96% 7 7902 2618 97%
c -  0.12  6 15 3 127 1804 1036 93% 13 7902 2618 97%
c ]  0.19  6 16 3 128 3003 1847 92% 13 7902 2618 97%
c {  0.19  6 40 3 128 3003 1847 81% 8 7902 2618 97%
c F  0.19  6 40 3 128 3004 1848 81% 8 7902 2618 97%
c -  0.19  6 40 4 128 3004 1301 81% 8 7902 2618 97%
c s  0.20  6 35 4 135 3216 1483 75% 8 7902 2618 97%
c e  0.23  6 35 4 135 3216   74 75% 8 5683 885 33%
c s  0.23  6 35 4 135 3216   71 75% 8 5683 885 33%
c -  0.29  6 27 5 291 4505 1271 86% 9 5683 885 33%
c p  0.32  6 26 5 374 5000 1850 85% 9 5683 876 33%
c #  0.37  6 24 5 490 6006 2769 84% 9 5683 876 33%
c -  0.38  6 24 6 501 6305 2246 84% 9 5656 876 33%
c }  0.41  6 24 6 524 7003 2895 84% 9 5656 876 33%
c 
c  seconds  reductions  redundant   irredundant
c         MB    restarts       trail      variables
c          level   conflicts        glue      remaining
c 
c [  0.41  6 16 6 524 7003 2895 280% 13 5656 876 33%
c -  0.47  7 25 7 525 8406 2795 200% 17 5656 876 33%
c I  0.55  7 28 7 526 10008 4172 164% 19 5656 876 33%
c -  0.60  7 29 8 527 10807 3368 153% 19 5656 876 33%
c -  0.76  7 31 9 529 13507 3698 133% 19 5656 876 33%
c s  0.79  7 31 9 529 13949 4101 131% 19 5645 876 33%
c w  0.80  7 31 9 529 13949 4101 131% 19 5645 876 33%
c s  0.81  7 31 9 529 13949 4099 131% 19 5645 876 33%
c p  0.88  7 30 9 529 15000 5097 126% 19 5645 876 33%
c ]  0.88  7 30 9 529 15006 5102 126% 19 5645 876 33%
c {  0.88  7 24 9 529 15006 5102 84% 9 5645 876 33%
c B  0.88  7 24 9 531 15017 5113 84% 9 5645 876 33%
c -  0.96  7 23 10 698 16507 4366 84% 10 5645 876 33%
c -  1.11  6 22 11 934 19810 4623 81% 10 5645 876 33%
c W  1.17  6 22 11 1001 21021 5702 79% 10 5645 876 33%
c -  1.28  7 21 12 1157 23410 5324 80% 10 5645 876 33%
c -  1.47  7 21 13 1472 27310 5986 80% 10 5645 876 33%
c F  1.50  7 21 13 1491 28022 6645 80% 10 5645 876 33%
c p  1.60  7 21 13 1600 30001 8539 80% 10 5645 876 33%
c }  1.65  7 21 13 1693 31008 9475 80% 10 5645 876 33%
c 
c  seconds  reductions     redundant   irredundant
c         MB     restarts         trail      variables
c          level      conflicts        glue      remaining
c 
c [  1.65  7 30 13 1693 31008 9475 126% 19 5645 876 33%
c -  1.68  7 30 14 1693 31514 6432 124% 19 5645 876 33%
c -  1.94  7 27 15 1696 36015 6804 113% 17 5645 876 33%
c B  1.94  7 27 15 1696 36023 6812 113% 17 5645 876 33%
c -  2.21  8 35 16 1699 40818 6976 107% 20 5645 876 33%
c W  2.48  8 37 16 1700 45024 10659 103% 22 5645 876 33%
c -  2.55  8 37 17 1701 45918 7489 102% 22 5645 876 33%
c p  2.82  8 37 17 1701 50003 10604 100% 23 5645 876 33%
c -  2.91  9 37 18 1701 51318 7139 99% 23 5645 876 33%
c O  3.12  9 36 18 1702 55028 9848 98% 23 5645 876 33%
c -  3.22  9 35 19 1704 57018 6924 97% 23 5645 876 33%
c ]  3.53  9 33 19 1708 63010 11125 96% 21 5645 876 33%
c {  3.53  9 21 19 1708 63010 11125 80% 10 5645 876 33%
c -  3.54  9 21 20 1710 63018 7013 80% 10 5645 876 33%
c B  3.68  9 21 20 1873 66029 9778 81% 10 5645 876 33%
c -  3.85  9 21 21 2105 69319 8695 81% 10 5645 876 33%
c p  4.17  9 20 21 2608 75004 14081 82% 10 5645 875 33%
c s  4.19  9 20 21 2608 75004 14031 82% 10 5645 875 33%
c v  4.20  9 20 21 2608 75004 14031 82% 10 5644 875 33%
c s  4.24  9 20 21 2608 75004 14022 82% 10 5641 875 33%
c 
c  seconds  reductions      redundant  irredundant
c         MB     restarts          trail     variables
c          level      conflicts        glue      remaining
c 
c ^  4.24  9 20 21 2608 75004 14022 82% 10 5641 875 33%
c -  4.30  9 20 22 2661 75921 10348 82% 10 5641 875 33%
c W  4.43  9 20 22 2816 78030 12271 82% 10 5641 875 33%
c -  4.70  9 20 23 3254 82821 10977 82% 10 5641 875 33%
c -  5.10 10 20 24 3679 90025 11693 83% 10 5641 875 33%
c #  5.15 10 20 24 3732 91031 12568 83% 10 5641 875 33%
c s  5.45 10 20 24 3989 96515 17528 83% 10 5641 875 33%
c s  5.49 10 20 24 3989 96515 17525 83% 10 5641 875 33%
c ^  5.49 10 20 24 3989 96515 17525 83% 10 5641 875 33%
c -  5.57  9 20 25 4087 97527 12345 83% 10 5641 875 33%
c p  5.97  9 19 25 4458 105004 19001 83% 10 5641 875 33%
c B  5.97  9 19 25 4458 105034 19021 83% 10 5641 875 33%
c -  6.00 10 19 26 4480 105327 12772 83% 10 5641 875 33%
c -  6.43  9 19 27 4905 113428 13351 82% 10 5641 875 33%
c W  6.82  9 19 27 5237 120035 19038 82% 10 5641 875 33%
c -  6.95 10 19 28 5443 121828 14097 82% 10 5641 875 33%
c s  7.05 10 19 28 5475 123401 15547 82% 10 5641 875 33%
c w  7.07 10 19 28 5475 123401 15545 82% 10 5641 875 33%
c s  7.10 10 19 28 5475 123401 15545 82% 10 5641 875 33%
c ^  7.10 10 19 28 5475 123401 15545 82% 10 5641 875 33%
c 
c  seconds  reductions       redundant  irredundant
c         MB     restarts           trail     variables
c          level      conflicts         glue      remaining
c 
c }  7.31 10 19 28 5667 127011 18850 82% 10 5641 875 33%
c [  7.31 10 33 28 5667 127011 18850 96% 21 5641 875 33%
c -  7.51 10 32 29 5667 130528 14948 95% 21 5641 875 33%
c B  7.83 10 31 29 5672 136036 19971 94% 20 5641 875 33%
c -  8.07 10 32 30 5674 139528 15113 94% 20 5641 875 33%
c p  8.12 10 32 30 5674 140004 15549 94% 20 5641 875 33%
c -  8.75 10 32 31 5675 148828 13677 93% 21 5641 875 33%
c W  9.11 10 32 31 5676 153038 17221 93% 21 5641 875 33%
c s  9.30 10 33 31 5676 155665 19671 93% 21 5641 875 33%
c e  9.33 10 33 31 5676 155665 19670 93% 21 5647 873 32%
c s  9.34 10 33 31 5676 155665 19669 93% 21 5647 873 32%
c ^  9.35 10 33 31 5676 155665 19669 93% 21 5647 873 32%
c -  9.56 11 33 32 5676 158431 14472 92% 21 5647 873 32%
c - 10.36 10 31 33 5677 168332 14171 92% 21 5647 873 32%
c I 10.57 10 31 33 5679 171041 16443 92% 21 5647 873 32%
c - 11.12 12 31 34 5683 178532 15259 92% 21 5647 873 32%
c p 11.25 12 31 34 5683 180004 16533 91% 21 5647 873 32%
c - 11.95 10 30 35 5690 189033 15220 91% 20 5647 873 32%
c B 12.03 10 30 35 5690 190043 16100 91% 20 5647 873 32%
c s 12.30 10 30 35 5691 193376 19131 91% 20 5647 873 32%
c 
c  seconds  reductions       redundant  irredundant
c         MB     restarts           trail     variables
c          level      conflicts         glue      remaining
c 
c w 12.32 10 30 35 5691 193376 19127 91% 20 5647 873 32%
c e 12.34 10 30 35 5691 193376 5515 91% 20 7956 572 21%
c s 12.35 10 30 35 5691 193376 5514 91% 20 7956 572 21%
c ^ 12.35 10 30 35 5691 193376 5514 91% 20 7956 572 21%
c - 12.73 11 30 36 5691 199837 8707 89% 20 7956 572 21%
c W 13.43 11 29 36 5698 210044 16531 88% 20 7956 572 21%
c - 13.49 11 29 37 5698 210937 12288 88% 20 7956 572 21%
c - 14.19 12 28 38 5705 222339 12631 87% 20 7956 572 21%
c p 14.36 12 28 38 5705 225004 14302 87% 20 7956 572 21%
c O 14.71 12 27 38 5706 231048 18877 87% 20 7956 572 21%
c - 14.90 12 27 39 5706 234040 14062 87% 19 7956 572 21%
c - 15.60 12 26 40 5707 246041 14443 87% 19 7956 572 21%
c B 16.02 12 26 40 5708 253049 20462 87% 19 7956 572 21%
c s 16.12 12 26 40 5708 254144 21293 87% 19 7956 572 21%
c w 16.15 12 26 40 5708 254144 21282 87% 19 7956 572 21%
c e 16.16 12 26 40 5708 254144 20705 87% 19 8023 567 21%
c s 16.20 12 26 40 5708 254144 20678 87% 19 8023 567 21%
c ] 16.26 12 26 40 5708 255012 21351 87% 19 8023 567 21%
c { 16.26 12 19 40 5708 255012 21351 127% 10 8023 567 21%
c - 16.47 13 19 41 5928 258342 17284 125% 10 8023 567 21%
c 
c  seconds  reductions       redundant   irredundant
c         MB     restarts           trail      variables
c          level      conflicts          glue      remaining
c 
c - 17.19 13 19 42 6671 270942 18281 117% 10 8023 567 21%
c p 17.43 13 19 42 6909 275005 21922 115% 10 8023 567 21%
c F 17.49 13 19 42 6985 276051 22897 114% 10 8023 567 21%
c - 18.04 13 19 43 7713 283842 19830 111% 10 8023 567 21%
c - 18.85 14 19 44 8429 297043 20381 106% 10 8023 567 21%
c B 19.03 14 19 44 8668 300052 23118 105% 10 8023 567 21%
c - 19.69 14 19 45 9327 310543 21611 102% 10 8023 567 21%
c s 20.52 14 19 45 10027 322953 32539 99% 10 8023 567 21%
c w 20.57 14 19 45 10027 322953 32529 99% 10 8023 567 21%
c s 20.63 14 19 45 10027 322953 32522 99% 10 8023 567 21%
c - 20.76 14 19 46 10170 324345 22719 99% 10 8023 567 21%
c W 20.90 14 19 46 10191 325053 23308 98% 10 8023 567 21%
c p 21.21 14 19 46 10534 330006 27811 98% 10 8023 567 21%
c - 21.78 16 19 47 10977 338445 23045 96% 10 8023 567 21%
c # 22.61 16 18 47 11987 351055 34061 94% 10 8023 567 21%
c - 22.77 14 19 48 12184 352845 23659 93% 10 8023 567 21%
c - 23.78 16 19 49 13181 367547 24801 92% 10 8023 567 21%
c B 24.49 16 19 49 13881 378056 34307 90% 10 8023 567 21%
c - 24.84 14 19 50 14187 382550 25728 90% 10 8023 567 21%
c p 25.33 14 19 50 14664 390009 32305 89% 10 8023 567 21%
c 
c  seconds  reductions        redundant  irredundant
c         MB      restarts           trail     variables
c          level       conflicts         glue      remaining
c 
c - 25.89 16 18 51 15104 397850 26160 88% 10 8023 567 21%
c W 26.60 16 18 51 15747 406058 33415 88% 10 8023 567 21%
c - 27.20 14 18 52 16325 413452 26896 87% 10 8023 567 21%
c - 28.33 16 18 53 17276 429352 28013 86% 10 8023 567 21%
c F 28.69 16 18 53 17479 435060 33171 86% 10 8023 567 21%
c - 29.49 14 18 54 18172 445552 28822 85% 10 8023 567 21%
c p 30.19 14 18 54 18865 455009 37255 85% 10 8023 567 21%
c - 30.74 16 18 55 19372 462052 29579 85% 10 8023 567 21%
c B 30.93 16 18 55 19539 465062 32010 84% 10 8023 567 21%
c - 32.00 14 18 56 20595 478856 29953 84% 10 8023 567 21%
c - 33.15 16 18 57 21525 495956 30734 83% 10 8023 567 21%
c W 33.30 16 18 57 21528 496063 30830 83% 10 8023 567 21%
c } 34.38 16 18 57 22409 511012 43979 83% 10 8023 567 21%
c [ 34.38 16 26 57 22409 511012 43979 87% 19 8023 567 21%
c - 34.59 14 26 58 22409 513357 31308 86% 19 8023 567 21%
c p 35.59 14 24 58 22409 525011 40826 85% 18 8023 567 21%
c W 35.99 14 25 58 22409 528064 43691 85% 18 8023 567 21%
c - 36.24 15 25 59 22409 531057 31378 85% 18 8023 567 21%
c - 37.70 15 27 60 22416 549057 30875 85% 19 8023 567 21%
c I 38.77 15 28 60 22423 561066 41757 85% 19 8023 567 21%
c 
c  seconds  reductions        redundant  irredundant
c         MB      restarts           trail     variables
c          level       conflicts         glue      remaining
c 
c - 39.31 16 28 61 22424 567358 30860 85% 19 8023 567 21%
c - 41.06 16 29 62 22432 585959 30660 86% 20 8023 567 21%
c B 41.99 16 29 62 22438 595067 38788 86% 20 8023 567 21%
c p 42.54 16 29 62 22439 600011 43128 86% 20 8023 567 21%
c - 43.02 17 29 63 22439 604859 31671 86% 21 8023 567 21%
c - 44.94 17 30 64 22441 624060 31814 86% 22 8023 567 21%
c W 45.72 17 31 64 22446 630069 36953 86% 22 8023 567 21%
c - 46.90 17 31 65 22453 643561 31547 87% 22 8023 567 21%
c - 48.81 20 31 66 22461 663362 31869 87% 22 8023 567 21%
c O 49.05 20 31 66 22462 666070 34325 87% 22 8023 567 21%
c p 50.11 20 29 66 22469 680012 44250 87% 21 8023 567 21%
c - 50.40 20 29 67 22470 683462 28972 87% 21 8023 567 21%
c B 51.82 20 27 67 22471 703071 44033 87% 20 8023 567 21%
c - 51.91 20 28 68 22471 703863 29736 87% 20 8023 567 21%
c - 53.58 20 27 69 22472 724567 31115 87% 20 8023 567 21%
c s 53.65 20 27 69 22472 724567 31013 87% 20 8023 567 21%
c w 53.75 20 27 69 22472 724567 30997 87% 20 8023 567 21%
c W 55.40 20 27 69 22473 741072 44504 88% 20 8023 567 21%
c - 55.90 20 27 70 22473 745568 31481 88% 20 8023 567 21%
c p 57.73 20 26 70 22473 765012 47309 88% 20 8023 567 21%
c 
c  seconds  reductions        redundant  irredundant
c         MB      restarts           trail     variables
c          level       conflicts         glue      remaining
c 
c - 57.96 20 26 71 22473 766868 32157 88% 19 8023 567 21%
c I 59.12 20 26 71 22473 780074 43341 88% 19 8023 567 21%
c - 59.88 23 26 72 22473 788470 34612 88% 19 8023 567 21%
c - 62.08 27 28 73 22477 810371 36195 88% 20 8023 567 21%
c B 62.90 27 29 73 22482 820075 44770 88% 20 8023 567 21%
c - 64.07 23 29 74 22488 832573 35355 88% 20 8023 567 21%
c p 66.17 23 30 74 22498 855013 53142 88% 21 8023 567 21%
c - 66.22 23 30 75 22498 855073 33800 88% 21 8023 567 21%
c W 66.95 23 29 75 22502 861076 37855 88% 21 8023 567 21%
c - 68.70 23 29 76 22504 877874 34814 87% 21 8023 567 21%
c - 71.02 24 29 77 22511 900975 37216 87% 21 8023 567 21%
c O 71.22 24 29 77 22513 903077 39102 87% 21 8023 567 21%
c - 73.04 24 27 78 22522 924376 33623 87% 19 8023 567 21%
c B 74.83 24 25 78 22533 946083 49403 87% 19 8023 567 21%
c - 75.03 24 26 79 22534 948077 33869 87% 19 8023 567 21%
c p 75.19 24 26 79 22534 950013 35663 87% 19 8023 567 21%
c - 77.01 26 27 80 22536 972079 36338 87% 20 8023 567 21%
c W 79.01 26 27 80 22536 990085 51764 87% 20 8023 567 21%
c - 79.88 26 28 81 22536 996380 37034 87% 20 8023 567 21%
c - 82.28 26 27 82 22546 1020980 36846 87% 20 8023 567 21%
c 
c  seconds  reductions         redundant  irredundant
c         MB      restarts            trail     variables
c          level        conflicts         glue      remaining
c 
c ] 82.47 26 27 82 22548 1023012 38365 87% 20 8023 567 21%
c { 82.47 26 18 82 22548 1023012 38365 83% 10 8023 567 21%
c # 83.38 26 18 82 23270 1035087 48628 83% 10 8023 567 21%
c - 84.24 26 18 83 23838 1045882 39212 82% 10 8023 567 21%
c p 84.61 26 18 83 24219 1050015 42931 82% 10 8023 567 21%
c - 86.66 26 18 84 25974 1071083 42939 82% 10 8023 567 21%
c B 87.60 26 18 84 26818 1081093 51853 82% 10 8023 567 21%
c - 89.01 26 17 85 27435 1096585 43801 82% 10 8023 567 21%
c - 91.24 26 17 86 28931 1122387 45092 82% 10 8023 567 21%
c } 91.73 26 17 86 29012 1128096 49707 80% 10 8023 567 21%
c 1 91.73 26 17 86 29012 1128096 49707 80% 10 8023 567 21%
c 
c --- [ result ] -------------------------------------------------------------
c 
s SATISFIABLE
v -1 -2 -3 -4 -5 -6 -7 -8 -9 -10 -11 -12 -13 -14 -15 16 -17 -18 -19 -20 21 -22
v -23 24 -25 -26 27 -28 -29 -30 -31 -32 -33 -34 -35 36 -37 -38 -39 -40 -41 -42
v -43 -44 -45 -46 47 -48 -49 -50 -51 -52 -53 -54 -55 56 -57 -58 -59 -60 -61
v -62 -63 -64 -65 -66 -67 -68 69 70 71 -72 73 -74 -75 -76 77 -78 -79 -80 81
v -82 -83 -84 85 -86 -87 -88 89 -90 -91 -92 -93 -94 -95 96 97 -98 -99 100 -101
v -102 103 -104 -105 -106 -107 -108 -109 -110 111 -112 -113 -114 -115 -116
v -117 -118 -119 -120 -121 -122 -123 -124 -125 -126 -127 -128 -129 -130 131
v -132 -133 -134 -135 -136 -137 -138 -139 140 141 -142 -143 -144 -145 -146
v -147 148 -149 -150 -151 -152 153 -154 -155 -156 -157 158 -159 -160 161 162
v -163 -164 -165 -166 167 -168 -169 -170 -171 -172 173 -174 175 -176 177 -178
v 179 -180 -181 -182 183 -184 -185 -186 -187 -188 -189 -190 -191 -192 -193
v -194 -195 -196 -197 198 -199 -200 201 -202 -203 -204 -205 -206 -207 -208
v -209 210 -211 -212 -213 -214 -215 -216 -217 -218 -219 -220 -221 -222 -223
v -224 225 -226 -227 -228 -229 -230 231 232 233 234 -235 -236 -237 -238 -239
v 240 -241 -242 -243 -244 -245 -246 -247 -248 -249 -250 251 252 -253 254 -255
v -256 -257 258 -259 -260 261 -262 263 -264 -265 -266 267 -268 -269 -270 -271
v 272 -273 -274 275 276 277 278 -279 -280 -281 -282 283 284 -285 -286 -287 288
v -289 290 -291 -292 293 294 295 -296 297 -298 299 300 -301 302 -303 304 -305
v 306 -307 -308 -309 310 -311 312 313 314 315 -316 -317 -318 -319 -320 321
v -322 -323 -324 325 326 327 328 329 330 331 332 333 334 335 336 337 338 339
v 340 341 342 343 344 345 346 347 348 349 350 351 352 353 354 355 356 357 358
v 359 360 361 362 363 364 365 366 367 368 369 370 371 372 373 374 375 376 377
v 378 379 380 381 382 383 384 385 386 387 388 389 390 391 392 393 394 395 396
v 397 398 -399 400 401 402 403 404 405 406 407 408 409 410 411 412 413 414 415
v 416 417 418 419 420 421 422 423 424 425 426 427 428 429 430 431 432 433 434
v 435 436 437 438 439 440 441 442 443 444 445 446 447 448 449 450 451 452 453
v 454 455 456 457 458 459 460 461 462 463 464 465 466 467 468 469 470 471 472
v -473 -474 -475 476 477 478 479 480 481 482 483 484 485 486 487 488 489 490
v 491 492 493 494 495 496 497 498 499 500 501 502 503 504 505 506 507 508 509
v 510 511 512 513 514 515 516 517 518 519 520 521 522 523 524 525 526 527 528
v 529 530 531 532 533 534 535 536 537 538 539 540 541 542 543 544 545 546 -547
v -548 -549 -550 -551 -552 -553 554 555 556 557 558 559 560 561 562 563 564
v 565 566 567 568 569 570 571 572 573 574 575 576 577 578 579 580 581 582 583
v 584 585 586 587 588 589 590 591 592 593 594 595 596 597 598 599 600 601 602
v 603 604 605 606 607 608 609 610 611 612 613 614 615 616 617 618 619 620 -621
v -622 -623 -624 -625 -626 -627 -628 -629 -630 631 632 633 634 635 636 637 638
v 639 640 641 642 643 644 645 646 647 648 649 650 651 652 653 654 655 656 657
v 658 659 660 661 662 663 664 665 666 667 668 669 670 671 672 673 674 675 676
v 677 678 679 680 681 682 683 684 685 686 687 688 689 690 691 692 693 694 -695
v -696 -697 -698 -699 -700 -701 -702 -703 -704 -705 -706 707 708 709 710 711
v 712 713 714 715 716 717 718 719 720 721 722 723 724 725 726 727 728 729 730
v 731 732 733 734 735 736 737 738 739 740 741 742 743 744 745 746 747 748 749
v 750 751 752 753 754 755 756 757 758 759 760 761 762 763 764 765 766 767 768
v -769 -770 -771 -772 -773 -774 -775 -776 -777 -778 -779 -780 -781 -782 -783
v -784 785 786 787 788 789 790 791 792 793 794 795 796 797 798 799 800 801 802
v 803 804 805 806 807 808 809 810 811 812 813 814 815 816 817 818 819 820 821
v 822 823 824 825 826 827 828 829 830 831 832 833 834 835 836 837 838 839 840
v 841 842 -843 -844 -845 -846 -847 -848 -849 -850 -851 -852 -853 -854 -855
v -856 -857 -858 -859 -860 -861 -862 -863 864 865 866 867 868 869 870 871 872
v 873 874 875 876 877 878 879 880 881 882 883 884 885 886 887 888 889 890 891
v 892 893 894 895 896 897 898 899 900 901 902 903 904 905 906 907 908 909 910
v 911 912 913 914 915 916 -917 -918 -919 -920 -921 -922 -923 -924 -925 -926
v -927 -928 -929 -930 -931 -932 -933 -934 -935 -936 -937 -938 -939 -940 941
v 942 943 944 945 946 947 948 949 950 951 952 953 954 955 956 957 958 959 960
v 961 962 963 964 965 966 967 968 969 970 971 972 973 974 975 976 977 978 979
v 980 981 982 983 984 985 986 987 988 989 990 -991 -992 -993 -994 -995 -996
v -997 -998 -999 -1000 -1001 -1002 -1003 -1004 -1005 -1006 -1007 -1008 -1009
v -1010 -1011 -1012 -1013 -1014 -1015 1016 1017 1018 1019 1020 1021 1022 1023
v 1024 1025 1026 1027 1028 1029 1030 1031 1032 1033 1034 1035 1036 1037 1038
v 1039 1040 1041 1042 1043 1044 1045 1046 1047 1048 1049 1050 1051 1052 1053
v 1054 1055 1056 1057 1058 1059 1060 1061 1062 1063 1064 -1065 -1066 -1067
v -1068 -1069 -1070 -1071 -1072 -1073 -1074 -1075 -1076 -1077 -1078 -1079
v -1080 -1081 -1082 -1083 -1084 -1085 -1086 -1087 -1088 -1089 -1090 1091 1092
v 1093 1094 1095 1096 1097 1098 1099 1100 1101 1102 1103 1104 1105 1106 1107
v 1108 1109 1110 1111 1112 1113 1114 1115 1116 1117 1118 1119 1120 1121 1122
v 1123 1124 1125 1126 1127 1128 1129 1130 1131 1132 1133 1134 1135 1136 1137
v 1138 -1139 -1140 -1141 -1142 -1143 -1144 -1145 -1146 -1147 -1148 -1149 -1150
v -1151 -1152 -1153 -1154 -1155 -1156 -1157 -1158 -1159 -1160 -1161 -1162
v -1163 -1164 -1165 1166 1167 1168 1169 1170 1171 1172 1173 1174 1175 1176
v 1177 1178 1179 1180 1181 1182 1183 1184 1185 1186 1187 1188 1189 1190 1191
v 1192 1193 1194 1195 1196 1197 1198 1199 1200 1201 1202 1203 1204 1205 1206
v 1207 1208 1209 1210 1211 1212 -1213 -1214 -1215 -1216 -1217 -1218 -1219
v -1220 -1221 -1222 -1223 -1224 -1225 -1226 -1227 -1228 -1229 -1230 -1231
v -1232 -1233 -1234 -1235 -1236 -1237 -1238 -1239 -1240 -1241 -1242 -1243
v -1244 1245 1246 1247 1248 1249 1250 1251 1252 1253 1254 1255 1256 1257 1258
v 1259 1260 1261 1262 1263 1264 1265 1266 1267 1268 1269 1270 1271 1272 1273
v 1274 1275 1276 1277 1278 1279 1280 1281 1282 1283 1284 1285 1286 -1287 -1288
v -1289 -1290 -1291 -1292 -1293 -1294 -1295 -1296 -1297 -1298 -1299 -1300
v -1301 -1302 -1303 -1304 -1305 -1306 -1307 -1308 -1309 -1310 -1311 -1312
v -1313 -1314 -1315 -1316 -1317 -1318 -1319 1320 1321 1322 1323 1324 1325 1326
v 1327 1328 1329 1330 1331 1332 1333 1334 1335 1336 1337 1338 1339 1340 1341
v 1342 1343 1344 1345 1346 1347 1348 1349 1350 1351 1352 1353 1354 1355 1356
v 1357 1358 1359 1360 -1361 -1362 -1363 -1364 -1365 -1366 -1367 -1368 -1369
v -1370 -1371 -1372 -1373 -1374 -1375 -1376 -1377 -1378 -1379 -1380 -1381
v -1382 -1383 -1384 -1385 -1386 -1387 -1388 -1389 -1390 -1391 -1392 -1393
v -1394 -1395 -1396 -1397 1398 1399 1400 1401 1402 1403 1404 1405 1406 1407
v 1408 1409 1410 1411 1412 1413 1414 1415 1416 1417 1418 1419 1420 1421 1422
v 1423 1424 1425 1426 1427 1428 1429 1430 1431 1432 1433 1434 -1435 -1436
v -1437 -1438 -1439 -1440 -1441 -1442 -1443 -1444 -1445 -1446 -1447 -1448
v -1449 -1450 -1451 -1452 -1453 -1454 -1455 -1456 -1457 -1458 -1459 -1460
v -1461 -1462 -1463 -1464 -1465 -1466 -1467 -1468 -1469 -1470 -1471 -1472
v -1473 1474 1475 1476 1477 1478 1479 1480 1481 1482 1483 1484 1485 1486 1487
v 1488 1489 1490 1491 1492 1493 1494 1495 1496 1497 1498 1499 1500 1501 1502
v 1503 1504 1505 1506 1507 1508 -1509 -1510 -1511 -1512 -1513 -1514 -1515
v -1516 -1517 -1518 -1519 -1520 -1521 -1522 -1523 -1524 -1525 -1526 -1527
v -1528 -1529 -1530 -1531 -1532 -1533 -1534 -1535 -1536 -1537 -1538 -1539
v -1540 -1541 -1542 -1543 -1544 -1545 -1546 -1547 -1548 -1549 -1550 1551 1552
v 1553 1554 1555 1556 1557 1558 1559 1560 1561 1562 1563 1564 1565 1566 1567
v 1568 1569 1570 1571 1572 1573 1574 1575 1576 1577 1578 1579 1580 1581 1582
v -1583 -1584 -1585 -1586 -1587 -1588 -1589 -1590 -1591 -1592 -1593 -1594
v -1595 -1596 -1597 -1598 -1599 -1600 -1601 -1602 -1603 -1604 -1605 -1606
v -1607 -1608 -1609 -1610 -1611 -1612 -1613 -1614 -1615 -1616 -1617 -1618
v -1619 -1620 -1621 -1622 -1623 -1624 -1625 1626 1627 1628 1629 1630 1631 1632
v 1633 1634 1635 1636 1637 1638 1639 1640 1641 1642 1643 1644 1645 1646 1647
v 1648 1649 1650 1651 1652 1653 1654 1655 1656 -1657 -1658 -1659 -1660 -1661
v -1662 -1663 -1664 -1665 -1666 -1667 -1668 -1669 -1670 -1671 -1672 -1673
v -1674 -1675 -1676 -1677 -1678 -1679 -1680 -1681 -1682 -1683 -1684 -1685
v -1686 -1687 -1688 -1689 -1690 -1691 -1692 -1693 -1694 -1695 -1696 -1697
v -1698 -1699 -1700 1701 1702 1703 1704 1705 1706 1707 1708 1709 1710 1711
v 1712 1713 1714 1715 1716 1717 1718 1719 1720 1721 1722 1723 1724 1725 1726
v 1727 1728 1729 1730 -1731 -1732 -1733 -1734 -1735 -1736 -1737 -1738 -1739
v -1740 -1741 -1742 -1743 -1744 -1745 -1746 -1747 -1748 -1749 -1750 -1751
v -1752 -1753 -1754 -1755 -1756 -1757 -1758 -1759 -1760 -1761 -1762 -1763
v -1764 -1765 -1766 -1767 -1768 -1769 -1770 -1771 -1772 -1773 -1774 -1775
v -1776 1777 1778 1779 1780 1781 1782 1783 1784 1785 1786 1787 1788 1789 1790
v 1791 1792 1793 1794 1795 1796 1797 1798 1799 1800 1801 1802 1803 1804 -1805
v -1806 -1807 -1808 -1809 -1810 -1811 -1812 -1813 -1814 -1815 -1816 -1817
v -1818 -1819 -1820 -1821 -1822 -1823 -1824 -1825 -1826 -1827 -1828 -1829
v -1830 -1831 -1832 -1833 -1834 -1835 -1836 -1837 -1838 -1839 -1840 -1841
v -1842 -1843 -1844 -1845 -1846 -1847 -1848 -1849 -1850 -1851 -1852 1853 1854
v 1855 1856 1857 1858 1859 1860 1861 1862 1863 1864 1865 1866 1867 1868 1869
v 1870 1871 1872 1873 1874 1875 1876 1877 1878 -1879 -1880 -1881 -1882 -1883
v -1884 -1885 -1886 -1887 -1888 -1889 -1890 -1891 -1892 -1893 -1894 -1895
v -1896 -1897 -1898 -1899 -1900 -1901 -1902 -1903 -1904 -1905 -1906 -1907
v -1908 -1909 -1910 -1911 -1912 -1913 -1914 -1915 -1916 -1917 -1918 -1919
v -1920 -1921 -1922 -1923 -1924 -1925 -1926 -1927 1928 1929 1930 1931 1932
v 1933 1934 1935 1936 1937 1938 1939 1940 1941 1942 1943 1944 1945 1946 1947
v 1948 1949 1950 1951 1952 -1953 -1954 -1955 -1956 -1957 -1958 -1959 -1960
v -1961 -1962 -1963 -1964 -1965 -1966 -1967 -1968 -1969 -1970 -1971 -1972
v -1973 -1974 -1975 -1976 -1977 -1978 -1979 -1980 -1981 -1982 -1983 -1984
v -1985 -1986 -1987 -1988 -1989 -1990 -1991 -1992 -1993 -1994 -1995 -1996
v -1997 -1998 -1999 -2000 -2001 -2002 -2003 2004 2005 2006 2007 2008 2009 2010
v 2011 2012 2013 2014 2015 2016 2017 2018 2019 2020 2021 2022 2023 2024 2025
v 2026 -2027 -2028 -2029 -2030 -2031 -2032 -2033 -2034 -2035 -2036 -2037 -2038
v -2039 -2040 -2041 -2042 -2043 -2044 -2045 -2046 -2047 -2048 -2049 -2050
v -2051 -2052 -2053 -2054 -2055 -2056 -2057 -2058 -2059 -2060 -2061 -2062
v -2063 -2064 -2065 -2066 -2067 -2068 -2069 -2070 -2071 -2072 -2073 -2074
v -2075 -2076 -2077 -2078 -2079 2080 2081 2082 2083 2084 2085 2086 2087 2088
v 2089 2090 2091 2092 2093 2094 2095 2096 2097 2098 2099 2100 -2101 -2102
v -2103 -2104 -2105 -2106 -2107 -2108 -2109 -2110 -2111 -2112 -2113 -2114
v -2115 -2116 -2117 -2118 -2119 -2120 -2121 -2122 -2123 -2124 -2125 -2126
v -2127 -2128 -2129 -2130 -2131 -2132 -2133 -2134 -2135 -2136 -2137 -2138
v -2139 -2140 -2141 -2142 -2143 -2144 -2145 -2146 -2147 -2148 -2149 -2150
v -2151 -2152 -2153 -2154 -2155 2156 2157 2158 2159 2160 2161 2162 2163 2164
v 2165 2166 2167 2168 2169 2170 2171 2172 2173 2174 -2175 -2176 -2177 -2178
v -2179 -2180 -2181 -2182 -2183 -2184 -2185 -2186 -2187 -2188 -2189 -2190
v -2191 -2192 -2193 -2194 -2195 -2196 -2197 -2198 -2199 -2200 -2201 -2202
v -2203 -2204 -2205 -2206 -2207 -2208 -2209 -2210 -2211 -2212 -2213 -2214
v -2215 -2216 -2217 -2218 -2219 -2220 -2221 -2222 -2223 -2224 -2225 -2226
v -2227 -2228 -2229 -2230 -2231 -2232 -2233 2234 2235 2236 2237 2238 2239 2240
v 2241 2242 2243 2244 2245 2246 2247 2248 -2249 -2250 -2251 -2252 -2253 -2254
v -2255 -2256 -2257 -2258 -2259 -2260 -2261 -2262 -2263 -2264 -2265 -2266
v -2267 -2268 -2269 -2270 -2271 -2272 -2273 -2274 -2275 -2276 -2277 -2278
v -2279 -2280 -2281 -2282 -2283 -2284 -2285 -2286 -2287 -2288 -2289 -2290
v -2291 -2292 -2293 -2294 -2295 -2296 -2297 -2298 -2299 -2300 -2301 -2302
v -2303 -2304 -2305 -2306 -2307 -2308 -2309 2310 2311 2312 2313 2314 2315 2316
v 2317 2318 2319 2320 2321 2322 -2323 -2324 -2325 -2326 -2327 -2328 -2329
v -2330 -2331 -2332 -2333 -2334 -2335 -2336 -2337 -2338 -2339 -2340 -2341
v -2342 -2343 -2344 -2345 -2346 -2347 -2348 -2349 -2350 -2351 -2352 -2353
v -2354 -2355 -2356 -2357 -2358 -2359 -2360 -2361 -2362 -2363 -2364 -2365
v -2366 -2367 -2368 -2369 -2370 -2371 -2372 -2373 -2374 -2375 -2376 -2377
v -2378 -2379 -2380 -2381 -2382 -2383 -2384 2385 2386 2387 2388 2389 2390 2391
v 2392 2393 2394 2395 2396 -2397 -2398 -2399 -2400 -2401 -2402 -2403 -2404
v -2405 -2406 -2407 -2408 -2409 -2410 -2411 -2412 -2413 -2414 -2415 -2416
v -2417 -2418 -2419 -2420 -2421 -2422 -2423 -2424 -2425 -2426 -2427 -2428
v -2429 -2430 -2431 -2432 -2433 -2434 -2435 -2436 -2437 -2438 -2439 -2440
v -2441 -2442 -2443 -2444 -2445 -2446 -2447 -2448 -2449 -2450 -2451 -2452
v -2453 -2454 -2455 -2456 -2457 -2458 -2459 2460 2461 2462 2463 2464 2465 2466
v 2467 2468 2469 2470 -2471 -2472 -2473 -2474 -2475 -2476 -2477 -2478 -2479
v -2480 -2481 -2482 -2483 -2484 -2485 -2486 -2487 -2488 -2489 -2490 -2491
v -2492 -2493 -2494 -2495 -2496 -2497 -2498 -2499 -2500 -2501 -2502 -2503
v -2504 -2505 -2506 -2507 -2508 -2509 -2510 -2511 -2512 -2513 -2514 -2515
v -2516 -2517 -2518 -2519 -2520 -2521 -2522 -2523 -2524 -2525 -2526 -2527
v -2528 -2529 -2530 -2531 -2532 -2533 -2534 2535 2536 2537 2538 2539 2540 2541
v 2542 2543 2544 -2545 -2546 -2547 -2548 -2549 -2550 -2551 -2552 -2553 -2554
v -2555 -2556 -2557 -2558 -2559 -2560 -2561 -2562 -2563 -2564 -2565 -2566
v -2567 -2568 -2569 -2570 -2571 -2572 -2573 -2574 -2575 -2576 -2577 -2578
v -2579 -2580 -2581 -2582 -2583 -2584 -2585 -2586 -2587 -2588 -2589 -2590
v -2591 -2592 -2593 -2594 -2595 -2596 -2597 -2598 -2599 -2600 -2601 -2602
v -2603 -2604 -2605 -2606 -2607 -2608 -2609 -2610 -2611 -2612 -2613 -2614 2615
v 2616 2617 2618 -2619 -2620 -2621 -2622 -2623 -2624 -2625 -2626 -2627 -2628
v -2629 -2630 -2631 -2632 -2633 -2634 -2635 -2636 -2637 -2638 -2639 -2640
v -2641 -2642 -2643 -2644 -2645 -2646 -2647 -2648 -2649 -2650 -2651 -2652
v -2653 -2654 -2655 -2656 -2657 -2658 -2659 -2660 -2661 -2662 -2663 -2664
v -2665 -2666 -2667 -2668 -2669 -2670 -2671 -2672 -2673 -2674 -2675 -2676
v -2677 -2678 -2679 -2680 -2681 -2682 -2683 -2684 -2685 -2686 -2687 -2688
v -2689 -2690 -2691 -2692 0
c 
c --- [ run-time profiling ] -------------------------------------------------
c 
c process time taken by individual solving procedures
c (percentage relative to process time for solving)
c 
c        90.47   98.63% search
c        57.58   62.78% stable
c        31.07   33.88% unstable
c         1.81    1.98% walk
c         1.25    1.37% simplify
c         0.42    0.46% subsume
c         0.29    0.32% vivify
c         0.21    0.23% probe
c         0.09    0.10% ternary
c         0.08    0.08% elim
c         0.00    0.01% parse
c         0.00    0.00% lucky
c   =================================
c        91.73   99.99% solve
c 
c last line shows process time for solving
c (percentage relative to total process time)
c 
c --- [ statistics ] ---------------------------------------------------------
c 
c chronological:            210266        18.64 %  of conflicts
c conflicts:               1128096     12298.48    per second
c decisions:               1787908     19491.74    per second
c eliminated:                 2041        75.82 %  of all variables
c fixed:                        84         3.12 %  of all variables
c learned:                 1108553        98.27 %  per conflict
c learned_lits:           48566581       100.00 %  learned literals
c minimized:                     0         0.00 %  learned literals
c shrunken:               14865661        30.61 %  learned literals
c minishrunken:            5055637        10.41 %  learned literals
c propagations:           91149117         0.99 M  per second
c reduced:                  899188        79.71 %  per conflict
c rephased:                     47     24002.04    interval
c restarts:                  29012        38.88    interval
c stabilizing:                   5        60.46 %  of conflicts
c subsumed:                 144021         6.39 %  of all clauses
c strengthened:               8239         0.37 %  of all clauses
c ternary:                       6         0.01 %  of resolved
c vivified:                     96         0.00 %  of all clauses
c walked:                       15     75206.40    interval
c weakened:                   8713         2.89    average size
c 
c seconds are measured in process time for solving
c 
c --- [ resources ] ----------------------------------------------------------
c 
c total process time since initialization:        91.73    seconds
c total real time since initialization:           91.75    seconds
c maximum resident set size of process:           27.36    MB
c 
c --- [ shutting down ] ------------------------------------------------------
c 
c exit 10
